num_features = 50;
num_usage_limits = 3;
num_plans = 3;
num_addons = 1;

features = ["oneToOneMeetings","teamMeetings","meetingNotes","calendarIntegrationAndSync","meetingArchives","meetingSearch","realTimeCollaboration","realTimeEmployeesFeedback","conversationStarters","fileAttachments","cloudLinkIntegrations","googleMeetAgendaOverlay","personalicedHomepage","markdownEditor","privateMeetingScratchpad","publicMeetingScratchpad","nextSteps","favoriteItems","meetingInsights","itemVoting","customPersonalAgendaTemplates","customOrgWideAgendaTemplates","goalSetting","milestones","okrExampleLibrary","largeGroupDiscussions","99%uptimeSLA","adminReporting","engagementInsights","dedicatedCSM","dedicatedQBR","guestUsers","teamTraining","teamOnboarding","prioritySupport","googleSSO","slackSOO","microsoftSSO","azureSSO","emailSSO","customSSO","googleWorkspace","googleCalendar","googleMeet","chromeMeetingExtension","slackbot","microsoftTeams","outlookCalendar","mobileApps","zapier"];
usage_limits = ["meetingSearchThreshold","storageLimit","payForGuestUsers"];
plans = ["BASIC","PRO","BUSINESS"];
addons = ["customSSO"];

plans_prices = [0,7,11];
addons_prices = [100];

linked_features = array2d(USAGE_LIMITS, FEATURES, [
    % meetingSearchThreshold
    0,0,0,0,0,1,0,0,0,0,0,0,0,0,0,0,0,0,0,0,0,0,0,0,0,0,0,0,0,0,0,0,0,0,0,0,0,0,0,0,0,0,0,0,0,0,0,0,0,0,
    % storageLimit
    0,0,0,0,0,0,0,0,0,1,1,0,0,0,0,0,0,0,0,0,0,0,0,0,0,0,0,0,0,0,0,0,0,0,0,0,0,0,0,0,0,0,0,0,0,0,0,0,0,0,
    % payForGuestUsers
    0,0,0,0,0,0,0,0,0,0,0,0,0,0,0,0,0,0,0,0,0,0,0,0,0,0,0,0,0,0,0,1,0,0,0,0,0,0,0,0,0,0,0,0,0,0,0,0,0,0
]);

plans_features = array2d(PLANS, FEATURES, [
    % BASIC
    1,1,1,1,1,1,0,1,1,1,1,1,1,1,1,0,0,0,0,0,0,0,0,0,0,0,0,0,0,0,0,1,0,0,0,1,1,1,1,1,0,1,1,1,1,1,1,1,1,0,
    % PRO
    1,1,1,1,1,1,1,1,1,1,1,1,1,1,1,1,1,1,1,1,1,0,0,0,0,0,0,0,0,0,0,1,0,0,0,1,1,1,1,1,0,1,1,1,1,1,1,1,1,1,
    % BUSINESS
    1,1,1,1,1,1,1,1,1,1,1,1,1,1,1,1,1,1,0,1,1,1,1,1,1,1,1,1,1,1,1,1,1,1,1,1,1,1,1,1,0,1,1,1,1,1,1,1,1,1
]);
plans_usage_limits = array2d(PLANS, USAGE_LIMITS, [
    % BASIC
    30,2,1,
    % PRO
    1000000000,250,1,
    % BUSINESS
    1000000000,1000000000,1
]);

addons_features = array2d(ADDONS, FEATURES, [
    % customSSO
    0,0,0,0,0,0,0,0,0,0,0,0,0,0,0,0,0,0,0,0,0,0,0,0,0,0,0,0,0,0,0,0,0,0,0,0,0,0,0,0,1,0,0,0,0,0,0,0,0,0
]);
addons_usage_limits = array2d(ADDONS, USAGE_LIMITS, [
    % customSSO
    0,0,0
]);
addons_usage_limits_extensions = array2d(ADDONS, USAGE_LIMITS, [
    % customSSO
    0,0,0
]);
addons_available_for = array2d(ADDONS, PLANS, [
    % customSSO
    0,0,1
]);
addons_depends_on = array2d(ADDONS, ADDONS, [
    % customSSO
    0
]);
